p ds 164 259
1 82
1 120
1 124
2 141
2 84
2 3
2 54
3 91
3 131
3 17
4 71
4 26
5 26
5 6
6 137
6 120
6 124
7 111
7 113
7 121
7 11
8 101
8 49
8 52
9 19
9 10
9 84
9 86
10 19
10 79
10 87
11 110
11 112
12 82
12 95
13 70
13 156
13 162
13 164
14 121
14 15
14 135
15 161
15 163
15 16
16 154
16 162
17 61
17 130
18 58
20 21
20 86
21 22
22 29
22 85
22 23
23 30
23 24
24 85
24 90
24 92
25 27
25 28
26 27
27 71
27 137
28 143
28 139
28 59
29 30
31 36
31 38
31 51
32 33
32 147
32 139
32 140
33 147
33 137
33 125
34 80
34 81
34 125
35 100
36 96
36 51
37 68
37 148
37 160
38 39
38 49
39 40
39 47
40 41
40 45
41 42
41 43
42 99
42 136
42 43
43 44
43 45
44 136
44 46
45 46
45 47
46 48
47 48
47 49
48 123
49 50
50 101
50 123
51 52
52 53
53 145
53 66
53 101
54 55
55 146
55 141
56 78
56 146
57 78
57 140
57 58
58 139
58 59
59 144
60 63
60 70
60 129
61 62
61 129
62 74
62 128
63 72
63 107
63 128
64 65
64 67
64 95
65 66
65 102
66 80
67 81
67 95
68 133
68 134
69 70
69 73
69 164
70 72
71 143
72 73
72 114
73 115
74 75
74 147
74 127
75 76
76 77
77 78
77 140
77 142
79 87
80 145
81 82
82 83
83 120
84 87
84 138
85 86
85 91
86 138
88 89
88 90
89 94
91 92
91 138
92 93
92 132
93 94
93 133
94 134
95 122
96 126
96 127
97 98
97 103
97 127
98 99
98 117
99 118
99 116
100 118
100 121
100 122
101 102
102 123
102 122
103 104
103 117
104 105
104 108
105 106
105 110
106 107
106 112
107 114
108 109
108 110
108 116
109 111
109 119
110 111
112 113
112 114
113 115
114 115
116 119
116 117
118 136
118 119
124 125
125 126
126 145
126 147
127 128
128 129
129 130
130 154
130 131
131 132
132 133
133 134
134 135
141 142
142 146
143 144
148 149
148 160
149 150
150 151
150 159
151 152
151 158
152 153
152 157
153 154
153 161
154 155
155 156
155 162
157 158
157 161
158 159
162 163
163 164
